sat
(
(define-fun first_name () String "aaaaaa")
(define-fun last_name () String "AAAAAA")
(define-fun email () String "aaaaaa.AAAAAA@gmail.com")
(define-fun Gender () String "Male")
(define-fun Eircode () String "AAAAA")
(define-fun Area_code () String "A")
(define-fun Street_code () String "A")
(define-fun IsCatholicPriest () Bool true)
)
cvc5::CONSTANT = { Boolean type: 1, String type: 7 }
cvc5::TERM = { EQUAL: 8, GT: 2, IMPLIES: 1, NOT: 1, OR: 1, REGEXP_RANGE: 5, REGEXP_STAR: 3, REGEXP_UNION: 2, STRING_CHARAT: 2, STRING_CONCAT: 1, STRING_IN_REGEXP: 3, STRING_LENGTH: 3 }
cvc5::VARIABLE = { Boolean type: 1 }
driver::filename = person.smt2
global::totalTime = 283ms
theory::arith::inferencesConflict = { ARITH_CONF_EQ: 22, ARITH_CONF_SIMPLEX: 9 }
theory::arith::inferencesLemma = { ARITH_ROW_IMPL: 1, ARITH_SPLIT_DEQ: 8, ARITH_UNATE: 8 }
theory::strings::inferencesConflict = { EQ_CONSTANT_MERGE: 1 }
theory::strings::inferencesLemma = { STRINGS_CODE_INJ: 142, STRINGS_CODE_PROXY: 17, STRINGS_DEQ_LENGTH_SP: 1, STRINGS_DEQ_STRINGS_EQ: 1, STRINGS_EXTF: 12, STRINGS_LEN_NORM: 9, STRINGS_REGISTER_TERM: 70, STRINGS_REGISTER_TERM_ATOMIC: 31, STRINGS_RE_UNFOLD_POS: 9 }